sat
(:max-memory          18.24
 :memory              17.61
 :num-allocs          4291953
 :rlimit-count        90787
 :sls-constraints     614
 :sls-ddfw-flips      32941.00
 :sls-ddfw-reinits    2
 :sls-ddfw-restarts   11
 :sls-ddfw-shifts     19894.00
 :sls.euf-conflict    614
 :solve-eqs-elim-vars 4
 :solve-eqs-steps     8
 :time                0.06
 :total-time          0.06)
